c nIsolatedPIs 8
c maxPI 56
p cnf 231 526
c gate 57 18 46 0
18 -57 0
46 -57 0
-18 -46 57 0
c gate 58 17 45 0
17 -58 0
45 -58 0
-17 -45 58 0
c gate 59 -57 -58 0
-57 -59 0
-58 -59 0
57 58 59 0
c gate 60 20 48 0
20 -60 0
48 -60 0
-20 -48 60 0
c gate 61 -20 -48 0
-20 -61 0
-48 -61 0
20 48 61 0
c gate 62 19 47 0
19 -62 0
47 -62 0
-19 -47 62 0
c gate 63 -61 62 0
-61 -63 0
62 -63 0
61 -62 63 0
c gate 64 -60 -63 0
-60 -64 0
-63 -64 0
60 63 64 0
c gate 65 -18 -46 0
-18 -65 0
-46 -65 0
18 46 65 0
c gate 66 -19 -47 0
-19 -66 0
-47 -66 0
19 47 66 0
c gate 67 -61 -66 0
-61 -67 0
-66 -67 0
61 66 67 0
c gate 68 -65 67 0
-65 -68 0
67 -68 0
65 -67 68 0
c gate 69 64 68 0
64 -69 0
68 -69 0
-64 -68 69 0
c gate 70 59 69 0
59 -70 0
69 -70 0
-59 -69 70 0
c gate 71 -17 -45 0
-17 -71 0
-45 -71 0
17 45 71 0
c gate 72 70 -71 0
70 -72 0
-71 -72 0
-70 71 72 0
c gate 73 -16 -44 0
-16 -73 0
-44 -73 0
16 44 73 0
c gate 74 16 44 0
16 -74 0
44 -74 0
-16 -44 74 0
c gate 75 15 43 0
15 -75 0
43 -75 0
-15 -43 75 0
c gate 76 -74 -75 0
-74 -76 0
-75 -76 0
74 75 76 0
c gate 77 -73 -76 0
-73 -77 0
-76 -77 0
73 76 77 0
c gate 78 -14 -42 0
-14 -78 0
-42 -78 0
14 42 78 0
c gate 79 -15 -43 0
-15 -79 0
-43 -79 0
15 43 79 0
c gate 80 -73 -79 0
-73 -80 0
-79 -80 0
73 79 80 0
c gate 81 -78 80 0
-78 -81 0
80 -81 0
78 -80 81 0
c gate 82 76 81 0
76 -82 0
81 -82 0
-76 -81 82 0
c gate 83 13 41 0
13 -83 0
41 -83 0
-13 -41 83 0
c gate 84 12 40 0
12 -84 0
40 -84 0
-12 -40 84 0
c gate 85 11 39 0
11 -85 0
39 -85 0
-11 -39 85 0
c gate 86 -84 -85 0
-84 -86 0
-85 -86 0
84 85 86 0
c gate 87 -11 -39 0
-11 -87 0
-39 -87 0
11 39 87 0
c gate 88 -10 -38 0
-10 -88 0
-38 -88 0
10 38 88 0
c gate 89 -87 -88 0
-87 -89 0
-88 -89 0
87 88 89 0
c gate 90 -6 -34 0
-6 -90 0
-34 -90 0
6 34 90 0
c gate 91 -7 -35 0
-7 -91 0
-35 -91 0
7 35 91 0
c gate 92 -90 -91 0
-90 -92 0
-91 -92 0
90 91 92 0
c gate 93 5 33 0
5 -93 0
33 -93 0
-5 -33 93 0
c gate 94 6 34 0
6 -94 0
34 -94 0
-6 -34 94 0
c gate 95 -93 -94 0
-93 -95 0
-94 -95 0
93 94 95 0
c gate 96 92 -95 0
92 -96 0
-95 -96 0
-92 95 96 0
c gate 97 8 36 0
8 -97 0
36 -97 0
-8 -36 97 0
c gate 98 7 35 0
7 -98 0
35 -98 0
-7 -35 98 0
c gate 99 -97 -98 0
-97 -99 0
-98 -99 0
97 98 99 0
c gate 100 -96 99 0
-96 -100 0
99 -100 0
96 -99 100 0
c gate 101 -8 -36 0
-8 -101 0
-36 -101 0
8 36 101 0
c gate 102 -9 -37 0
-9 -102 0
-37 -102 0
9 37 102 0
c gate 103 -101 -102 0
-101 -103 0
-102 -103 0
101 102 103 0
c gate 104 -100 103 0
-100 -104 0
103 -104 0
100 -103 104 0
c gate 105 10 38 0
10 -105 0
38 -105 0
-10 -38 105 0
c gate 106 9 37 0
9 -106 0
37 -106 0
-9 -37 106 0
c gate 107 -105 -106 0
-105 -107 0
-106 -107 0
105 106 107 0
c gate 108 -104 107 0
-104 -108 0
107 -108 0
104 -107 108 0
c gate 109 89 -108 0
89 -109 0
-108 -109 0
-89 108 109 0
c gate 110 86 -109 0
86 -110 0
-109 -110 0
-86 109 110 0
c gate 111 2 30 0
2 -111 0
30 -111 0
-2 -30 111 0
c gate 112 1 29 0
1 -112 0
29 -112 0
-1 -29 112 0
c gate 113 -111 -112 0
-111 -113 0
-112 -113 0
111 112 113 0
c gate 114 -3 -31 0
-3 -114 0
-31 -114 0
3 31 114 0
c gate 115 -2 -30 0
-2 -115 0
-30 -115 0
2 30 115 0
c gate 116 -114 -115 0
-114 -116 0
-115 -116 0
114 115 116 0
c gate 117 -113 116 0
-113 -117 0
116 -117 0
113 -116 117 0
c gate 118 3 31 0
3 -118 0
31 -118 0
-3 -31 118 0
c gate 119 4 32 0
4 -119 0
32 -119 0
-4 -32 119 0
c gate 120 -118 -119 0
-118 -120 0
-119 -120 0
118 119 120 0
c gate 121 -117 120 0
-117 -121 0
120 -121 0
117 -120 121 0
c gate 122 -4 -32 0
-4 -122 0
-32 -122 0
4 32 122 0
c gate 123 -5 -33 0
-5 -123 0
-33 -123 0
5 33 123 0
c gate 124 -101 -123 0
-101 -124 0
-123 -124 0
101 123 124 0
c gate 125 -122 124 0
-122 -125 0
124 -125 0
122 -124 125 0
c gate 126 92 125 0
92 -126 0
125 -126 0
-92 -125 126 0
c gate 127 -121 126 0
-121 -127 0
126 -127 0
121 -126 127 0
c gate 128 100 127 0
100 -128 0
127 -128 0
-100 -127 128 0
c gate 129 -102 -106 0
-102 -129 0
-106 -129 0
102 106 129 0
c gate 130 89 129 0
89 -130 0
129 -130 0
-89 -129 130 0
c gate 131 128 130 0
128 -131 0
130 -131 0
-128 -130 131 0
c gate 132 110 -131 0
110 -132 0
-131 -132 0
-110 131 132 0
c gate 133 -13 -41 0
-13 -133 0
-41 -133 0
13 41 133 0
c gate 134 -12 -40 0
-12 -134 0
-40 -134 0
12 40 134 0
c gate 135 -83 -134 0
-83 -135 0
-134 -135 0
83 134 135 0
c gate 136 -133 135 0
-133 -136 0
135 -136 0
133 -135 136 0
c gate 137 -132 136 0
-132 -137 0
136 -137 0
132 -136 137 0
c gate 138 -83 -137 0
-83 -138 0
-137 -138 0
83 137 138 0
c gate 139 14 42 0
14 -139 0
42 -139 0
-14 -42 139 0
c gate 140 82 -139 0
82 -140 0
-139 -140 0
-82 139 140 0
c gate 141 138 140 0
138 -141 0
140 -141 0
-138 -140 141 0
c gate 142 82 -141 0
82 -142 0
-141 -142 0
-82 141 142 0
c gate 143 -77 -142 0
-77 -143 0
-142 -143 0
77 142 143 0
c gate 144 72 -143 0
72 -144 0
-143 -144 0
-72 143 144 0
c gate 145 64 -144 0
64 -145 0
-144 -145 0
-64 144 145 0
c gate 146 70 145 0
70 -146 0
145 -146 0
-70 -145 146 0
c gate 147 26 54 0
26 -147 0
54 -147 0
-26 -54 147 0
c gate 148 -26 -54 0
-26 -148 0
-54 -148 0
26 54 148 0
c gate 149 -147 -148 0
-147 -149 0
-148 -149 0
147 148 149 0
c gate 150 25 53 0
25 -150 0
53 -150 0
-25 -53 150 0
c gate 151 -59 69 0
-59 -151 0
69 -151 0
59 -69 151 0
c gate 152 145 -151 0
145 -152 0
-151 -152 0
-145 151 152 0
c gate 153 24 52 0
24 -153 0
52 -153 0
-24 -52 153 0
c gate 154 -24 -52 0
-24 -154 0
-52 -154 0
24 52 154 0
c gate 155 23 51 0
23 -155 0
51 -155 0
-23 -51 155 0
c gate 156 -154 155 0
-154 -156 0
155 -156 0
154 -155 156 0
c gate 157 -153 -156 0
-153 -157 0
-156 -157 0
153 156 157 0
c gate 158 -22 -50 0
-22 -158 0
-50 -158 0
22 50 158 0
c gate 159 -23 -51 0
-23 -159 0
-51 -159 0
23 51 159 0
c gate 160 -154 -159 0
-154 -160 0
-159 -160 0
154 159 160 0
c gate 161 -158 160 0
-158 -161 0
160 -161 0
158 -160 161 0
c gate 162 157 161 0
157 -162 0
161 -162 0
-157 -161 162 0
c gate 163 -21 -49 0
-21 -163 0
-49 -163 0
21 49 163 0
c gate 164 21 49 0
21 -164 0
49 -164 0
-21 -49 164 0
c gate 165 22 50 0
22 -165 0
50 -165 0
-22 -50 165 0
c gate 166 -164 -165 0
-164 -166 0
-165 -166 0
164 165 166 0
c gate 167 -163 166 0
-163 -167 0
166 -167 0
163 -166 167 0
c gate 168 162 167 0
162 -168 0
167 -168 0
-162 -167 168 0
c gate 169 -152 168 0
-152 -169 0
168 -169 0
152 -168 169 0
c gate 170 162 -166 0
162 -170 0
-166 -170 0
-162 166 170 0
c gate 171 157 -170 0
157 -171 0
-170 -171 0
-157 170 171 0
c gate 172 -169 171 0
-169 -172 0
171 -172 0
169 -171 172 0
c gate 173 -25 -53 0
-25 -173 0
-53 -173 0
25 53 173 0
c gate 174 -150 -173 0
-150 -174 0
-173 -174 0
150 173 174 0
c gate 175 -172 174 0
-172 -175 0
174 -175 0
172 -174 175 0
c gate 176 -150 -175 0
-150 -176 0
-175 -176 0
150 175 176 0
c gate 177 149 -176 0
149 -177 0
-176 -177 0
-149 176 177 0
c gate 178 -149 176 0
-149 -178 0
176 -178 0
149 -176 178 0
c gate 179 -177 -178 0
-177 -179 0
-178 -179 0
177 178 179 0
c gate 180 -171 -173 0
-171 -180 0
-173 -180 0
171 173 180 0
c gate 181 -150 -180 0
-150 -181 0
-180 -181 0
150 180 181 0
c gate 182 -149 181 0
-149 -182 0
181 -182 0
149 -181 182 0
c gate 183 149 -181 0
149 -183 0
-181 -183 0
-149 181 183 0
c gate 184 -182 -183 0
-182 -184 0
-183 -184 0
182 183 184 0
c gate 185 179 -184 0
179 -185 0
-184 -185 0
-179 184 185 0
c gate 186 171 -174 0
171 -186 0
-174 -186 0
-171 174 186 0
c gate 187 169 186 0
169 -187 0
186 -187 0
-169 -186 187 0
c gate 188 -185 -187 0
-185 -188 0
-187 -188 0
185 187 188 0
c gate 189 -179 184 0
-179 -189 0
184 -189 0
179 -184 189 0
c gate 190 188 -189 0
188 -190 0
-189 -190 0
-188 189 190 0
c gate 191 146 168 0
146 -191 0
168 -191 0
-146 -168 191 0
c gate 192 86 -89 0
86 -192 0
-89 -192 0
-86 89 192 0
c gate 193 136 -192 0
136 -193 0
-192 -193 0
-136 192 193 0
c gate 194 138 193 0
138 -194 0
193 -194 0
-138 -193 194 0
c gate 195 86 -134 0
86 -195 0
-134 -195 0
-86 134 195 0
c gate 196 89 195 0
89 -196 0
195 -196 0
-89 -195 196 0
c gate 197 -193 196 0
-193 -197 0
196 -197 0
193 -196 197 0
c gate 198 132 197 0
132 -198 0
197 -198 0
-132 -197 198 0
c gate 199 -194 -198 0
-194 -199 0
-198 -199 0
194 198 199 0
c gate 200 131 -134 0
131 -200 0
-134 -200 0
-131 134 200 0
c gate 201 110 200 0
110 -201 0
200 -201 0
-110 -200 201 0
c gate 202 199 -201 0
199 -202 0
-201 -202 0
-199 201 202 0
c gate 203 -141 202 0
-141 -203 0
202 -203 0
141 -202 203 0
c gate 204 128 203 0
128 -204 0
203 -204 0
-128 -203 204 0
c gate 205 -146 204 0
-146 -205 0
204 -205 0
146 -204 205 0
c gate 206 -191 -205 0
-191 -206 0
-205 -206 0
191 205 206 0
c gate 207 190 -206 0
190 -207 0
-206 -207 0
-190 206 207 0
c gate 208 28 -56 0
28 -208 0
-56 -208 0
-28 56 208 0
c gate 209 -28 56 0
-28 -209 0
56 -209 0
28 -56 209 0
c gate 210 -208 -209 0
-208 -210 0
-209 -210 0
208 209 210 0
c gate 211 -27 -55 0
-27 -211 0
-55 -211 0
27 55 211 0
c gate 212 27 55 0
27 -212 0
55 -212 0
-27 -55 212 0
c gate 213 -211 -212 0
-211 -213 0
-212 -213 0
211 212 213 0
c gate 214 -210 213 0
-210 -214 0
213 -214 0
210 -213 214 0
c gate 215 -147 -214 0
-147 -215 0
-214 -215 0
147 214 215 0
c gate 216 -183 215 0
-183 -216 0
215 -216 0
183 -215 216 0
c gate 217 177 216 0
177 -217 0
216 -217 0
-177 -216 217 0
c gate 218 149 214 0
149 -218 0
214 -218 0
-149 -214 218 0
c gate 219 175 218 0
175 -219 0
218 -219 0
-175 -218 219 0
c gate 220 -217 -219 0
-217 -220 0
-219 -220 0
217 219 220 0
c gate 221 188 220 0
188 -221 0
220 -221 0
-188 -220 221 0
c gate 222 -207 221 0
-207 -222 0
221 -222 0
207 -221 222 0
c gate 223 72 141 0
72 -223 0
141 -223 0
-72 -141 223 0
c gate 224 -203 -223 0
-203 -224 0
-223 -224 0
203 223 224 0
c gate 225 -222 -224 0
-222 -225 0
-224 -225 0
222 224 225 0
c gate 226 -204 222 0
-204 -226 0
222 -226 0
204 -222 226 0
c gate 227 -223 226 0
-223 -227 0
226 -227 0
223 -226 227 0
c gate 228 -225 -227 0
-225 -228 0
-227 -228 0
225 227 228 0
c gate 229 -146 228 0
-146 -229 0
228 -229 0
146 -228 229 0
c gate 230 146 -228 0
146 -230 0
-228 -230 0
-146 228 230 0
c gate 231 -229 -230 0
-229 -231 0
-230 -231 0
229 230 231 0
c PO
-231 0
